jobs  (incl. supersource/sink ):	52
RESOURCES
- renewable                 : 2 R
- nonrenewable              : 2 N
- doubly constrained        : 0 D
************************************************************************
PRECEDENCE RELATIONS:
jobnr.    #modes  #successors   successors
1	1	18		2 3 4 5 6 7 8 9 10 11 12 13 15 16 19 25 26 30 
2	3	11		50 48 47 33 32 28 27 23 20 18 14 
3	3	10		50 48 47 33 32 31 29 28 20 17 
4	3	9		50 48 36 33 32 23 22 18 17 
5	3	12		48 47 45 41 35 34 33 32 31 28 27 20 
6	3	10		47 45 44 39 35 34 32 31 27 24 
7	3	8		48 45 44 34 33 32 20 18 
8	3	8		47 46 45 34 33 27 24 18 
9	3	12		50 49 48 47 45 44 42 40 39 33 32 27 
10	3	10		48 45 42 41 40 39 33 32 27 21 
11	3	9		49 48 45 40 39 34 32 31 22 
12	3	7		47 46 44 34 23 22 21 
13	3	8		50 47 44 39 35 31 27 22 
14	3	9		51 44 42 41 40 38 37 31 29 
15	3	8		44 42 40 39 33 32 31 27 
16	3	9		49 47 45 44 43 41 40 39 27 
17	3	6		45 44 41 40 34 27 
18	3	6		42 41 40 39 37 31 
19	3	4		44 40 32 27 
20	3	4		46 42 39 38 
21	3	4		49 43 38 37 
22	3	3		41 38 37 
23	3	3		45 39 37 
24	3	3		43 41 37 
25	3	3		41 39 37 
26	3	2		45 33 
27	3	2		38 37 
28	3	2		44 37 
29	3	2		45 39 
30	3	2		44 42 
31	3	1		43 
32	3	1		46 
33	3	1		37 
34	3	1		42 
35	3	1		40 
36	3	1		44 
37	3	1		52 
38	3	1		52 
39	3	1		52 
40	3	1		52 
41	3	1		52 
42	3	1		52 
43	3	1		52 
44	3	1		52 
45	3	1		52 
46	3	1		52 
47	3	1		52 
48	3	1		52 
49	3	1		52 
50	3	1		52 
51	3	1		52 
52	1	0		
************************************************************************
REQUESTS/DURATIONS
jobnr.	mode	dur	R1	R2	N1	N2	
------------------------------------------------------------------------
1	1	0	0	0	0	0	
2	1	5	8	8	6	2	
	2	6	8	8	6	1	
	3	7	8	6	6	1	
3	1	3	2	6	2	7	
	2	6	2	6	2	4	
	3	7	1	6	2	3	
4	1	2	7	8	4	6	
	2	5	3	4	4	3	
	3	9	3	4	4	2	
5	1	2	7	5	7	5	
	2	6	6	4	5	4	
	3	10	5	2	5	4	
6	1	1	9	3	9	6	
	2	3	8	3	5	6	
	3	4	6	1	5	6	
7	1	1	7	2	5	8	
	2	2	6	2	4	7	
	3	8	3	2	2	5	
8	1	3	6	9	7	5	
	2	5	6	8	5	4	
	3	10	5	8	5	3	
9	1	4	6	3	4	6	
	2	9	3	3	3	4	
	3	10	3	3	3	3	
10	1	3	10	9	7	5	
	2	7	7	8	6	3	
	3	10	4	7	5	1	
11	1	1	3	7	5	9	
	2	5	2	4	5	5	
	3	6	1	3	4	5	
12	1	1	9	6	8	10	
	2	4	9	6	6	9	
	3	6	8	6	4	8	
13	1	3	9	10	9	9	
	2	4	9	7	6	5	
	3	9	9	7	4	2	
14	1	2	5	9	6	9	
	2	3	5	9	5	6	
	3	9	3	8	2	2	
15	1	5	7	10	8	7	
	2	7	7	8	5	7	
	3	9	6	8	4	5	
16	1	4	10	5	9	7	
	2	5	7	3	8	5	
	3	7	7	1	4	3	
17	1	6	7	7	9	3	
	2	7	7	4	3	3	
	3	8	7	4	1	1	
18	1	3	7	7	1	3	
	2	5	4	4	1	3	
	3	6	2	3	1	3	
19	1	2	8	10	4	3	
	2	3	4	5	4	2	
	3	4	3	3	3	2	
20	1	3	9	6	8	6	
	2	7	8	6	7	5	
	3	10	7	3	7	4	
21	1	1	6	9	4	5	
	2	2	3	9	3	4	
	3	4	1	8	3	4	
22	1	3	10	5	6	8	
	2	8	9	4	5	8	
	3	10	8	4	2	8	
23	1	1	9	10	4	10	
	2	3	6	8	4	7	
	3	7	4	6	3	6	
24	1	1	3	8	5	10	
	2	2	3	6	2	9	
	3	9	3	5	2	9	
25	1	2	7	5	7	7	
	2	8	4	5	7	6	
	3	10	2	4	7	2	
26	1	2	5	7	4	9	
	2	4	3	6	4	7	
	3	9	3	5	4	6	
27	1	1	9	6	9	6	
	2	8	6	5	7	5	
	3	10	4	5	6	4	
28	1	3	7	5	8	4	
	2	7	7	5	7	3	
	3	8	7	5	7	2	
29	1	2	6	5	9	3	
	2	4	2	5	7	2	
	3	5	2	5	6	2	
30	1	5	7	10	5	5	
	2	8	5	7	3	4	
	3	10	4	6	2	3	
31	1	3	5	10	9	6	
	2	4	4	8	7	5	
	3	5	2	7	7	3	
32	1	2	3	9	5	9	
	2	3	3	9	2	5	
	3	9	1	9	2	4	
33	1	1	5	7	6	7	
	2	6	4	6	4	5	
	3	8	4	3	4	5	
34	1	1	5	5	5	5	
	2	2	5	3	5	4	
	3	3	4	1	4	4	
35	1	1	10	9	3	10	
	2	4	7	8	3	5	
	3	10	5	8	3	2	
36	1	2	10	4	5	3	
	2	6	8	4	5	3	
	3	7	5	2	1	3	
37	1	1	4	8	4	8	
	2	2	4	6	3	4	
	3	8	4	3	2	3	
38	1	3	5	5	4	10	
	2	7	4	4	3	7	
	3	9	4	4	3	5	
39	1	3	9	9	7	10	
	2	7	7	8	5	10	
	3	8	5	8	3	10	
40	1	1	9	3	6	6	
	2	3	9	2	5	4	
	3	4	9	1	4	3	
41	1	6	5	1	8	2	
	2	7	5	1	3	2	
	3	8	4	1	3	2	
42	1	7	3	8	4	3	
	2	9	3	7	2	3	
	3	10	3	6	1	3	
43	1	3	10	6	7	3	
	2	5	8	4	3	2	
	3	8	6	4	3	2	
44	1	3	7	10	6	9	
	2	5	4	4	5	8	
	3	6	4	2	5	8	
45	1	6	4	7	6	9	
	2	9	2	7	4	6	
	3	10	2	7	4	3	
46	1	2	10	8	6	9	
	2	8	10	5	4	7	
	3	9	10	5	4	6	
47	1	8	5	1	8	7	
	2	9	4	1	6	6	
	3	10	3	1	4	6	
48	1	2	9	7	6	8	
	2	4	9	7	4	7	
	3	5	9	6	2	4	
49	1	3	8	6	4	3	
	2	5	8	6	2	3	
	3	6	7	5	2	3	
50	1	3	7	9	9	6	
	2	8	7	8	5	5	
	3	10	6	8	3	5	
51	1	7	9	9	6	7	
	2	9	8	7	6	3	
	3	10	7	7	6	1	
52	1	0	0	0	0	0	
************************************************************************

 RESOURCE AVAILABILITIES 
	R 1	R 2	N 1	N 2
	97	94	213	227

************************************************************************
